p cnf 13 59
1 -7 -9 0
8 -2 -12 0
2 -11 -7 0
13 -10 -2 0
6 -11 -3 0
1 -12 -4 0
-9 -8 11 0
-12 -10 8 0
7 -4 -5 0
13 -5 6 0
-13 -1 -4 0
-6 13 -1 0
-11 4 -3 0
-1 9 -4 0
-12 -2 11 0
-11 -3 13 0
-5 -2 -8 0
11 -10 13 0
10 11 3 0
4 13 6 0
11 12 -2 0
2 13 6 0
-8 -9 -3 0
5 -12 2 0
-7 -12 1 0
-1 7 -13 0
-8 -11 12 0
-13 3 2 0
-5 -7 -13 0
-5 -8 12 0
1 -9 -5 0
5 13 -6 0
6 -2 13 0
-13 12 -2 0
-12 5 8 0
6 -9 -1 0
7 9 11 0
-6 13 -10 0
4 -10 5 0
1 -10 7 0
13 -9 6 0
-13 -8 -5 0
5 -4 11 0
-10 8 3 0
-11 -9 3 0
-13 12 -2 0
-12 13 8 0
-9 -12 -1 0
-13 8 1 0
-13 -11 -8 0
4 -5 -1 0
-1 13 5 0
10 1 5 0
-9 -6 -3 0
-7 -10 13 0
3 10 -7 0
-4 7 -11 0
-9 -12 -5 0
7 11 2 0
